N = 5;
Capacity = 4;
ItemsPerCustomer = [4, 2, 5, 7, 5];
maxItemsPerCustomer = 7;
binCapacity = 50;
SizesOfItems = [|
  28, 24, 16, 10, 0, 0, 0
| 34, 34, 0, 0, 0, 0, 0
| 32, 31, 25, 19, 10, 0, 0
| 38, 37, 37, 36, 34, 19, 18
| 36, 34, 30, 21, 18, 0, 0
|];
Distance = [|
  0, 22, 42, 41, 9, 52
| 22, 0, 39, 41, 27, 51
| 42, 39, 0, 5, 37, 89
| 41, 41, 5, 0, 35, 90
| 9, 27, 37, 35, 0, 60
| 52, 51, 89, 90, 60, 0
|];
